# avogadro generated ORCA input file 
# Basic Mode
# 
! BP RI OPT def2-SVP def2-SVP

* xyz 0 1
   N        0.70078        2.82374        1.33536
   C        1.32352        3.10182        0.09140
   C        1.57152        4.44243       -0.24827
   C        2.16727        4.77200       -1.46612
   C        2.52264        3.76608       -2.36331
  Cl        3.27356        4.17943       -3.89332
   C        2.28248        2.42882       -2.04134
   C        1.69198        2.07778       -0.81752
   S        1.42747        0.31769       -0.50348
   O        0.09710       -0.14940       -1.11418
   O        2.41828       -0.56515       -1.27865
   N        1.43531       -0.34766        1.14355
   C        0.34739       -0.86189        1.75216
   C        0.67491       -1.29244        3.01881
   C        2.01694       -1.03210        3.18998
   C        2.46612       -0.44849        2.01691
   C        3.86656       -0.02043        1.79626
   O        4.68227       -0.18992        2.69315
   O        4.25588        0.53824        0.62078
   C        5.56053        0.92707        0.35576
   H        6.24440        0.05020        0.46001
   C        5.76779        1.53369       -1.06110
   C        6.83828        2.64859       -0.84190
   C        7.23349        2.37273        0.47224
   C        8.46662        1.55061        0.61999
   C        8.75733        0.87254        1.73666
   C        6.08452        2.06112        1.20252
   C        5.14425        3.13816        1.21954
   C        5.20554        4.11363        0.19799
   C        6.09802        3.86321       -0.87232
   H        0.45006        3.59114        1.97596
   H        0.45287        1.87237        1.62229
   H        1.29854        5.23778        0.43405
   H        2.35134        5.81035       -1.71067
   H        2.56305        1.65847       -2.74854
   H       -0.63635       -0.92197        1.30572
   H        0.00810       -1.74691        3.73912
   H        2.60059       -1.24727        4.07563
   H        4.78858        1.95111       -1.38317
   H        6.03719        0.78149       -1.83214
   H        9.17091        1.50769       -0.20666
   H        8.09565        0.88635        2.59713
   H        9.67333        0.29369        1.79476
   H        4.34099        3.16429        1.94427
   H        4.51993        4.94903        0.17148
   H        6.06872        4.48360       -1.75831
*

