# avogadro generated ORCA input file 
# Basic Mode
# 
! BP RI OPT def2-SVP def2-SVP 

* xyz 0 1
   C        1.46059       -0.19701        0.04371
   C        1.45981       -0.37415       -1.46736
   O        2.60963       -1.03692       -1.85864
   C        3.54867       -0.56262       -2.71765
   O        3.42356        0.54396       -3.22407
   C        4.74318       -1.37529       -3.04830
   C        5.75306       -0.96253       -3.90048
   C        6.67979       -1.98275       -3.94305
   C        6.20835       -2.98215       -3.11905
   N        5.03115       -2.61291       -2.57773
   S        4.08478       -3.61047       -1.45465
   O        2.74504       -3.84259       -2.17106
   O        4.73115       -5.00337       -1.51994
   C        3.91536       -3.00822        0.24036
   C        3.15411       -3.63975        1.16491
   C        3.01721       -3.10971        2.57655
   C        3.77671       -1.83779        2.89247
   C        4.59658       -1.21926        1.79919
   C        4.64882       -1.77479        0.58387
  Cl        5.53436        0.26302        2.03120
   C        3.74414       -1.24034        4.11997
   C        3.02986       -1.61115        5.39472
   C        2.19112       -2.73532        5.59017
   C        1.58352       -2.96996        6.82867
   C        1.79381       -2.09865        7.89496
   C        2.61422       -0.98651        7.72757
   C        3.22446       -0.74532        6.49429
   N        2.44237       -4.83427        0.85567
   H        0.53012        0.31838        0.36186
   H        2.33506        0.41307        0.35468
   H        1.50920       -1.18666        0.54390
   H        1.36809        0.62515       -1.94600
   H        0.57853       -0.98169       -1.76266
   H        5.81291       -0.02189       -4.43230
   H        7.59970       -1.99568       -4.51197
   H        6.70390       -3.92519       -2.92991
   H        3.38635       -3.91178        3.24975
   H        1.93513       -2.91474        2.73148
   H        5.25195       -1.30045       -0.18362
   H        4.32822       -0.33421        4.22422
   H        1.97330       -3.45560        4.83156
   H        0.94512       -3.83434        6.96131
   H        1.32101       -2.28568        8.85048
   H        2.77915       -0.30805        8.55475
   H        3.85571        0.13057        6.40388
   H        2.47759       -5.28129       -0.06908
   H        1.86896       -5.29084        1.57989
*

