# avogadro generated ORCA input file 
# Basic Mode
# 
! BP RI OPT def2-SVP def2-SVP 

* xyz 0 1
   C        1.96601        0.05453        0.59710
   C        1.54917       -0.69977        1.85066
   O        2.51393       -1.63853        2.17030
   C        3.21036       -1.69952        3.33458
   O        3.01116       -0.87908        4.21998
   C        4.22776       -2.75620        3.54695
   C        4.98142       -2.88667        4.70038
   C        5.81678       -3.97645        4.51165
   C        5.51591       -4.48575        3.26323
   N        4.56216       -3.73786        2.67630
   S        3.90015       -4.04509        1.05793
   O        4.42190       -5.43804        0.67140
   O        2.40414       -4.31273        1.28571
   C        4.23618       -2.81403       -0.21262
   C        3.69608       -2.90682       -1.51743
   C        3.99486       -1.90543       -2.45589
   C        4.81518       -0.82937       -2.11160
   C        5.34928       -0.74099       -0.82528
   C        5.06166       -1.72948        0.11866
  Cl        6.37852        0.61156       -0.39257
   N        2.85875       -3.98562       -1.90712
   C        6.80141       -4.59557        5.43505
   C        7.40186       -4.08966        6.53660
   C        7.40058       -2.70354        7.08174
   C        7.24048       -1.55642        6.28072
   C        7.28245       -0.27937        6.84898
   C        7.49884       -0.12839        8.21946
   C        7.68798       -1.25449        9.02175
   C        7.64904       -2.53248        8.45606
   H        2.92416        0.58746        0.77492
   H        1.18503        0.79639        0.32808
   H        2.09308       -0.65283       -0.24887
   H        1.38642        0.03123        2.67241
   H        0.58942       -1.22403        1.65830
   H        4.89703       -2.26130        5.57639
   H        5.97638       -5.35452        2.81043
   H        3.58984       -1.95888       -3.45876
   H        5.03498       -0.06531       -2.84633
   H        5.48105       -1.64887        1.11293
   H        2.61597       -4.74917       -1.26300
   H        2.47641       -4.02943       -2.86316
   H        7.03791       -5.63163        5.20591
   H        7.99504       -4.80179        7.10566
   H        7.11273       -1.63125        5.21226
   H        7.15715        0.59485        6.22314
   H        7.53316        0.86093        8.65711
   H        7.86844       -1.13787       10.08260
   H        7.80244       -3.39240        9.09699
*

